job_count = 38 ;
duration = [|6, 1|9, 2|10, 9|14, 7|2, 6|11, 2|3, 6|9, 2|3, 4|8, 6|14, 6|5, 4|10, 6|8, 8|18, 8|8, 3|10, 7|7, 7|13, 6|15, 9|8, 1|4, 1|14, 7|2, 6|3, 1|18, 2|17, 8|5, 3|7, 6|10, 8|4, 1|3, 9|11, 9|4, 1|5, 9|13, 6|4, 8|17, 4|] ;
machine_count = 2 ;
cost = [|18, 27|13, 35|17, 30|15, 36|11, 24|15, 38|18, 30|16, 24|12, 29|14, 34|15, 21|19, 35|12, 21|11, 38|11, 30|18, 30|16, 21|16, 30|19, 39|13, 26|16, 31|15, 25|19, 30|15, 20|16, 25|14, 20|11, 34|15, 27|13, 22|15, 23|19, 28|18, 29|18, 23|10, 24|19, 29|17, 29|13, 27|12, 22|] ;
deadline = [95, 95, 95, 95, 95, 95, 95, 95, 95, 95, 95, 95, 95, 95, 95, 95, 95, 95, 95, 95, 95, 95, 95, 95, 95, 95, 95, 95, 95, 95, 95, 95, 95, 95, 95, 95, 95, 95] ;
release = [0, 0, 0, 0, 0, 0, 0, 0, 0, 0, 0, 0, 0, 0, 0, 0, 0, 0, 0, 0, 0, 0, 0, 0, 0, 0, 0, 0, 0, 0, 0, 0, 0, 0, 0, 0, 0, 0] ;
resource = [|9, 9|4, 4|1, 1|9, 9|2, 2|4, 4|1, 1|2, 2|6, 6|7, 7|6, 6|5, 5|1, 1|8, 8|5, 5|4, 4|7, 7|2, 2|1, 1|4, 4|1, 1|8, 8|5, 5|3, 3|8, 8|3, 3|2, 2|1, 1|1, 1|1, 1|6, 6|7, 7|4, 4|7, 7|6, 6|3, 3|1, 1|4, 4|] ;
capacities = [10, 10] ;
